job_count = 30 ;
duration = [|29, 18, 3|17, 2, 4|16, 8, 9|7, 17, 1|11, 15, 4|27, 7, 6|25, 6, 9|19, 5, 7|15, 16, 7|10, 14, 2|18, 14, 9|26, 3, 5|27, 15, 6|8, 19, 3|9, 11, 5|21, 3, 7|20, 4, 5|18, 13, 8|5, 13, 3|18, 14, 4|12, 2, 7|10, 6, 5|10, 10, 7|28, 8, 4|14, 18, 2|24, 10, 7|22, 15, 2|29, 4, 4|5, 18, 2|23, 4, 9|] ;
machine_count = 3 ;
cost = [|18, 24, 50|13, 22, 50|18, 27, 51|12, 36, 46|10, 38, 55|11, 32, 34|10, 32, 59|15, 29, 56|16, 30, 55|16, 27, 52|15, 21, 34|16, 32, 55|18, 35, 37|17, 39, 43|14, 24, 44|16, 31, 39|19, 27, 52|10, 28, 56|11, 30, 31|11, 38, 48|10, 24, 49|14, 29, 48|13, 21, 48|11, 24, 48|16, 32, 38|13, 30, 43|18, 25, 38|15, 39, 54|16, 22, 36|10, 33, 39|] ;
deadline = [67, 67, 67, 67, 67, 67, 67, 67, 67, 67, 67, 67, 67, 67, 67, 67, 67, 67, 67, 67, 67, 67, 67, 67, 67, 67, 67, 67, 67, 67] ;
release = [0, 0, 0, 0, 0, 0, 0, 0, 0, 0, 0, 0, 0, 0, 0, 0, 0, 0, 0, 0, 0, 0, 0, 0, 0, 0, 0, 0, 0, 0] ;
resource = [|4, 4, 4|1, 1, 1|7, 7, 7|1, 1, 1|3, 3, 3|1, 1, 1|3, 3, 3|4, 4, 4|7, 7, 7|3, 3, 3|9, 9, 9|6, 6, 6|2, 2, 2|3, 3, 3|2, 2, 2|7, 7, 7|3, 3, 3|3, 3, 3|3, 3, 3|8, 8, 8|4, 4, 4|3, 3, 3|7, 7, 7|9, 9, 9|8, 8, 8|4, 4, 4|1, 1, 1|5, 5, 5|3, 3, 3|6, 6, 6|] ;
capacities = [10, 10, 10] ;
